Minimize
	value: tt

Subject to
tt + 1000 s_1_1 > 0.0
tt - t_1_1 - 1001.110473 s_1_1  + 0.555236 s_1_8  + 0.555236 s_1_7  > -992.163133
tt + 1000 s_2_1 > 0.0
tt - t_2_1 - 1000.943601 s_2_1  + 0.471800 s_2_8  + 0.471800 s_2_7  > -992.795569
tt + 1000 s_1_2 > 0.0
tt - t_1_2 - 1000.555236 s_1_2  + 0.555236 s_1_7  > -992.222075
tt + 1000 s_2_2 > 0.0
tt - t_2_2 - 1000.471800 s_2_2  + 0.471800 s_2_7  > -992.657228
tt + 1000 s_1_3 > 0.0
tt - t_1_3 - 1001.110473 s_1_3  + 0.555236 s_1_8  + 0.555236 s_1_7  > -999.527578
tt + 1000 s_2_3 > 0.0
tt - t_2_3 - 1000.943601 s_2_3  + 0.471800 s_2_8  + 0.471800 s_2_7  > -998.399651
tt + 1000 s_1_4 > 0.0
tt - t_1_4 - 1000.555236 s_1_4  + 0.555236 s_1_7  > -999.212311
tt + 1000 s_2_4 > 0.0
tt - t_2_4 - 1000.471800 s_2_4  + 0.471800 s_2_7  > -997.441460
tt + 1000 s_1_5 > 0.0
tt - t_1_5 - 1000.555236 s_1_5  + 0.555236 s_1_8  > -996.348833
tt + 1000 s_2_5 > 0.0
tt - t_2_5 - 1000.471800 s_2_5  + 0.471800 s_2_8  > -996.115189
tt + 1000 s_1_6 > 0.0
tt - t_1_6 - 1003.331418 s_1_6  + 0.555236 s_1_4  + 0.555236 s_1_1  + 0.555236 s_1_3  + 0.555236 s_1_2  + 0.555236 s_1_5  + 0.555236 s_1_7  > -999.703500
tt + 1000 s_2_6 > 0.0
tt - t_2_6 - 1002.830803 s_2_6  + 0.471800 s_2_4  + 0.471800 s_2_1  + 0.471800 s_2_3  + 0.471800 s_2_2  + 0.471800 s_2_5  + 0.471800 s_2_7  > -999.301125
tt + 1000 s_1_7 > 0.0
tt - t_1_7 - 1000.000000 s_1_7  > -988.049778
tt + 1000 s_2_7 > 0.0
tt - t_2_7 - 1000.000000 s_2_7  > -993.569556
tt + 1000 s_1_8 > 0.0
tt - t_1_8 - 1000.000000 s_1_8  > -988.388900
tt + 1000 s_2_8 > 0.0
tt - t_2_8 - 1000.000000 s_2_8  > -994.189556
s_1_1 + s_2_1 = 1
s_1_2 + s_2_2 = 1
s_1_3 + s_2_3 = 1
s_1_4 + s_2_4 = 1
s_1_5 + s_2_5 = 1
s_1_6 + s_2_6 = 1
s_1_7 + s_2_7 = 1
s_1_8 + s_2_8 = 1
s_1_1 + s_1_2 + 1000 r_1_1_2 >= 2
- s_1_1 - s_1_2 - 1000 r_1_1_2 >= -1001
t_1_1 - t_1_2 - 1000.000000 u_1_1_2 - 0.555236 s_1_2  + 0.555236 s_1_7  + 2000.000000 r_1_1_2 > -992.222075
s_2_1 + s_2_2 + 1000 r_2_1_2 >= 2
- s_2_1 - s_2_2 - 1000 r_2_1_2 >= -1001
t_2_1 - t_2_2 - 1000.000000 u_2_1_2 - 0.471800 s_2_2  + 0.471800 s_2_7  + 2000.000000 r_2_1_2 > -992.657228
s_1_1 + s_1_3 + 1000 r_1_1_3 >= 2
- s_1_1 - s_1_3 - 1000 r_1_1_3 >= -1001
t_1_1 - t_1_3 - 1000.000000 u_1_1_3 - 1.110473 s_1_3  + 0.555236 s_1_8  + 0.555236 s_1_7  + 2000.000000 r_1_1_3 > -999.527578
s_2_1 + s_2_3 + 1000 r_2_1_3 >= 2
- s_2_1 - s_2_3 - 1000 r_2_1_3 >= -1001
t_2_1 - t_2_3 - 1000.000000 u_2_1_3 - 0.943601 s_2_3  + 0.471800 s_2_8  + 0.471800 s_2_7  + 2000.000000 r_2_1_3 > -998.399651
s_1_1 + s_1_4 + 1000 r_1_1_4 >= 2
- s_1_1 - s_1_4 - 1000 r_1_1_4 >= -1001
t_1_1 - t_1_4 - 1000.000000 u_1_1_4 - 0.555236 s_1_4  + 0.555236 s_1_7  + 2000.000000 r_1_1_4 > -999.212311
s_2_1 + s_2_4 + 1000 r_2_1_4 >= 2
- s_2_1 - s_2_4 - 1000 r_2_1_4 >= -1001
t_2_1 - t_2_4 - 1000.000000 u_2_1_4 - 0.471800 s_2_4  + 0.471800 s_2_7  + 2000.000000 r_2_1_4 > -997.441460
s_1_1 + s_1_5 + 1000 r_1_1_5 >= 2
- s_1_1 - s_1_5 - 1000 r_1_1_5 >= -1001
t_1_1 - t_1_5 - 1000.000000 u_1_1_5 - 0.555236 s_1_5  + 0.555236 s_1_8  + 2000.000000 r_1_1_5 > -996.348833
s_2_1 + s_2_5 + 1000 r_2_1_5 >= 2
- s_2_1 - s_2_5 - 1000 r_2_1_5 >= -1001
t_2_1 - t_2_5 - 1000.000000 u_2_1_5 - 0.471800 s_2_5  + 0.471800 s_2_8  + 2000.000000 r_2_1_5 > -996.115189
t_1_6 - t_1_1 - 1001.110473 s_1_1  + 0.555236 s_1_8  + 0.555236 s_1_7  > -992.163133
t_1_6 - t_2_1 - 1000.943601 s_2_1  + 0.471800 s_2_8  + 0.471800 s_2_7  > -992.795569
t_2_6 - t_1_1 - 1001.110473 s_1_1  + 0.555236 s_1_8  + 0.555236 s_1_7  > -992.163133
t_2_6 - t_2_1 - 1000.943601 s_2_1  + 0.471800 s_2_8  + 0.471800 s_2_7  > -992.795569
t_1_1 - t_1_7 - 1000.000000 s_1_7  > -988.049778
t_1_1 - t_2_7 - 1000.000000 s_2_7  > -993.569556
t_2_1 - t_1_7 - 1000.000000 s_1_7  > -988.049778
t_2_1 - t_2_7 - 1000.000000 s_2_7  > -993.569556
t_1_1 - t_1_8 - 1000.000000 s_1_8  > -988.388900
t_1_1 - t_2_8 - 1000.000000 s_2_8  > -994.189556
t_2_1 - t_1_8 - 1000.000000 s_1_8  > -988.388900
t_2_1 - t_2_8 - 1000.000000 s_2_8  > -994.189556
s_1_2 + s_1_1 + 1000 r_1_1_2 >= 2
- s_1_2 - s_1_1 - 1000 r_1_1_2 >= -1001
t_1_2 - t_1_1 + 1000.000000 u_1_1_2 - 1.110473 s_1_1  + 0.555236 s_1_8  + 0.555236 s_1_7  + 2000.000000 r_1_1_2 > 7.836867
s_2_2 + s_2_1 + 1000 r_2_1_2 >= 2
- s_2_2 - s_2_1 - 1000 r_2_1_2 >= -1001
t_2_2 - t_2_1 + 1000.000000 u_2_1_2 - 0.943601 s_2_1  + 0.471800 s_2_8  + 0.471800 s_2_7  + 2000.000000 r_2_1_2 > 7.204431
s_1_2 + s_1_3 + 1000 r_1_2_3 >= 2
- s_1_2 - s_1_3 - 1000 r_1_2_3 >= -1001
t_1_2 - t_1_3 - 1000.000000 u_1_2_3 - 1.110473 s_1_3  + 0.555236 s_1_8  + 0.555236 s_1_7  + 2000.000000 r_1_2_3 > -999.527578
s_2_2 + s_2_3 + 1000 r_2_2_3 >= 2
- s_2_2 - s_2_3 - 1000 r_2_2_3 >= -1001
t_2_2 - t_2_3 - 1000.000000 u_2_2_3 - 0.943601 s_2_3  + 0.471800 s_2_8  + 0.471800 s_2_7  + 2000.000000 r_2_2_3 > -998.399651
s_1_2 + s_1_4 + 1000 r_1_2_4 >= 2
- s_1_2 - s_1_4 - 1000 r_1_2_4 >= -1001
t_1_2 - t_1_4 - 1000.000000 u_1_2_4 - 0.555236 s_1_4  + 0.555236 s_1_7  + 2000.000000 r_1_2_4 > -999.212311
s_2_2 + s_2_4 + 1000 r_2_2_4 >= 2
- s_2_2 - s_2_4 - 1000 r_2_2_4 >= -1001
t_2_2 - t_2_4 - 1000.000000 u_2_2_4 - 0.471800 s_2_4  + 0.471800 s_2_7  + 2000.000000 r_2_2_4 > -997.441460
s_1_2 + s_1_5 + 1000 r_1_2_5 >= 2
- s_1_2 - s_1_5 - 1000 r_1_2_5 >= -1001
t_1_2 - t_1_5 - 1000.000000 u_1_2_5 - 0.555236 s_1_5  + 0.555236 s_1_8  + 2000.000000 r_1_2_5 > -996.348833
s_2_2 + s_2_5 + 1000 r_2_2_5 >= 2
- s_2_2 - s_2_5 - 1000 r_2_2_5 >= -1001
t_2_2 - t_2_5 - 1000.000000 u_2_2_5 - 0.471800 s_2_5  + 0.471800 s_2_8  + 2000.000000 r_2_2_5 > -996.115189
t_1_6 - t_1_2 - 1000.555236 s_1_2  + 0.555236 s_1_7  > -992.222075
t_1_6 - t_2_2 - 1000.471800 s_2_2  + 0.471800 s_2_7  > -992.657228
t_2_6 - t_1_2 - 1000.555236 s_1_2  + 0.555236 s_1_7  > -992.222075
t_2_6 - t_2_2 - 1000.471800 s_2_2  + 0.471800 s_2_7  > -992.657228
t_1_2 - t_1_7 - 1000.000000 s_1_7  > -988.049778
t_1_2 - t_2_7 - 1000.000000 s_2_7  > -993.569556
t_2_2 - t_1_7 - 1000.000000 s_1_7  > -988.049778
t_2_2 - t_2_7 - 1000.000000 s_2_7  > -993.569556
s_1_2 + s_1_8 + 1000 r_1_2_8 >= 2
- s_1_2 - s_1_8 - 1000 r_1_2_8 >= -1001
t_1_2 - t_1_8 - 1000.000000 u_1_2_8 - 0.000000 s_1_8  + 2000.000000 r_1_2_8 > -988.388900
s_2_2 + s_2_8 + 1000 r_2_2_8 >= 2
- s_2_2 - s_2_8 - 1000 r_2_2_8 >= -1001
t_2_2 - t_2_8 - 1000.000000 u_2_2_8 - 0.000000 s_2_8  + 2000.000000 r_2_2_8 > -994.189556
s_1_3 + s_1_1 + 1000 r_1_1_3 >= 2
- s_1_3 - s_1_1 - 1000 r_1_1_3 >= -1001
t_1_3 - t_1_1 + 1000.000000 u_1_1_3 - 1.110473 s_1_1  + 0.555236 s_1_8  + 0.555236 s_1_7  + 2000.000000 r_1_1_3 > 7.836867
s_2_3 + s_2_1 + 1000 r_2_1_3 >= 2
- s_2_3 - s_2_1 - 1000 r_2_1_3 >= -1001
t_2_3 - t_2_1 + 1000.000000 u_2_1_3 - 0.943601 s_2_1  + 0.471800 s_2_8  + 0.471800 s_2_7  + 2000.000000 r_2_1_3 > 7.204431
s_1_3 + s_1_2 + 1000 r_1_2_3 >= 2
- s_1_3 - s_1_2 - 1000 r_1_2_3 >= -1001
t_1_3 - t_1_2 + 1000.000000 u_1_2_3 - 0.555236 s_1_2  + 0.555236 s_1_7  + 2000.000000 r_1_2_3 > 7.777925
s_2_3 + s_2_2 + 1000 r_2_2_3 >= 2
- s_2_3 - s_2_2 - 1000 r_2_2_3 >= -1001
t_2_3 - t_2_2 + 1000.000000 u_2_2_3 - 0.471800 s_2_2  + 0.471800 s_2_7  + 2000.000000 r_2_2_3 > 7.342772
s_1_3 + s_1_4 + 1000 r_1_3_4 >= 2
- s_1_3 - s_1_4 - 1000 r_1_3_4 >= -1001
t_1_3 - t_1_4 - 1000.000000 u_1_3_4 - 0.555236 s_1_4  + 0.555236 s_1_7  + 2000.000000 r_1_3_4 > -999.212311
s_2_3 + s_2_4 + 1000 r_2_3_4 >= 2
- s_2_3 - s_2_4 - 1000 r_2_3_4 >= -1001
t_2_3 - t_2_4 - 1000.000000 u_2_3_4 - 0.471800 s_2_4  + 0.471800 s_2_7  + 2000.000000 r_2_3_4 > -997.441460
s_1_3 + s_1_5 + 1000 r_1_3_5 >= 2
- s_1_3 - s_1_5 - 1000 r_1_3_5 >= -1001
t_1_3 - t_1_5 - 1000.000000 u_1_3_5 - 0.555236 s_1_5  + 0.555236 s_1_8  + 2000.000000 r_1_3_5 > -996.348833
s_2_3 + s_2_5 + 1000 r_2_3_5 >= 2
- s_2_3 - s_2_5 - 1000 r_2_3_5 >= -1001
t_2_3 - t_2_5 - 1000.000000 u_2_3_5 - 0.471800 s_2_5  + 0.471800 s_2_8  + 2000.000000 r_2_3_5 > -996.115189
t_1_6 - t_1_3 - 1001.110473 s_1_3  + 0.555236 s_1_8  + 0.555236 s_1_7  > -999.527578
t_1_6 - t_2_3 - 1000.943601 s_2_3  + 0.471800 s_2_8  + 0.471800 s_2_7  > -998.399651
t_2_6 - t_1_3 - 1001.110473 s_1_3  + 0.555236 s_1_8  + 0.555236 s_1_7  > -999.527578
t_2_6 - t_2_3 - 1000.943601 s_2_3  + 0.471800 s_2_8  + 0.471800 s_2_7  > -998.399651
t_1_3 - t_1_7 - 1000.000000 s_1_7  > -988.049778
t_1_3 - t_2_7 - 1000.000000 s_2_7  > -993.569556
t_2_3 - t_1_7 - 1000.000000 s_1_7  > -988.049778
t_2_3 - t_2_7 - 1000.000000 s_2_7  > -993.569556
t_1_3 - t_1_8 - 1000.000000 s_1_8  > -988.388900
t_1_3 - t_2_8 - 1000.000000 s_2_8  > -994.189556
t_2_3 - t_1_8 - 1000.000000 s_1_8  > -988.388900
t_2_3 - t_2_8 - 1000.000000 s_2_8  > -994.189556
s_1_4 + s_1_1 + 1000 r_1_1_4 >= 2
- s_1_4 - s_1_1 - 1000 r_1_1_4 >= -1001
t_1_4 - t_1_1 + 1000.000000 u_1_1_4 - 1.110473 s_1_1  + 0.555236 s_1_8  + 0.555236 s_1_7  + 2000.000000 r_1_1_4 > 7.836867
s_2_4 + s_2_1 + 1000 r_2_1_4 >= 2
- s_2_4 - s_2_1 - 1000 r_2_1_4 >= -1001
t_2_4 - t_2_1 + 1000.000000 u_2_1_4 - 0.943601 s_2_1  + 0.471800 s_2_8  + 0.471800 s_2_7  + 2000.000000 r_2_1_4 > 7.204431
s_1_4 + s_1_2 + 1000 r_1_2_4 >= 2
- s_1_4 - s_1_2 - 1000 r_1_2_4 >= -1001
t_1_4 - t_1_2 + 1000.000000 u_1_2_4 - 0.555236 s_1_2  + 0.555236 s_1_7  + 2000.000000 r_1_2_4 > 7.777925
s_2_4 + s_2_2 + 1000 r_2_2_4 >= 2
- s_2_4 - s_2_2 - 1000 r_2_2_4 >= -1001
t_2_4 - t_2_2 + 1000.000000 u_2_2_4 - 0.471800 s_2_2  + 0.471800 s_2_7  + 2000.000000 r_2_2_4 > 7.342772
s_1_4 + s_1_3 + 1000 r_1_3_4 >= 2
- s_1_4 - s_1_3 - 1000 r_1_3_4 >= -1001
t_1_4 - t_1_3 + 1000.000000 u_1_3_4 - 1.110473 s_1_3  + 0.555236 s_1_8  + 0.555236 s_1_7  + 2000.000000 r_1_3_4 > 0.472422
s_2_4 + s_2_3 + 1000 r_2_3_4 >= 2
- s_2_4 - s_2_3 - 1000 r_2_3_4 >= -1001
t_2_4 - t_2_3 + 1000.000000 u_2_3_4 - 0.943601 s_2_3  + 0.471800 s_2_8  + 0.471800 s_2_7  + 2000.000000 r_2_3_4 > 1.600349
s_1_4 + s_1_5 + 1000 r_1_4_5 >= 2
- s_1_4 - s_1_5 - 1000 r_1_4_5 >= -1001
t_1_4 - t_1_5 - 1000.000000 u_1_4_5 - 0.555236 s_1_5  + 0.555236 s_1_8  + 2000.000000 r_1_4_5 > -996.348833
s_2_4 + s_2_5 + 1000 r_2_4_5 >= 2
- s_2_4 - s_2_5 - 1000 r_2_4_5 >= -1001
t_2_4 - t_2_5 - 1000.000000 u_2_4_5 - 0.471800 s_2_5  + 0.471800 s_2_8  + 2000.000000 r_2_4_5 > -996.115189
t_1_6 - t_1_4 - 1000.555236 s_1_4  + 0.555236 s_1_7  > -999.212311
t_1_6 - t_2_4 - 1000.471800 s_2_4  + 0.471800 s_2_7  > -997.441460
t_2_6 - t_1_4 - 1000.555236 s_1_4  + 0.555236 s_1_7  > -999.212311
t_2_6 - t_2_4 - 1000.471800 s_2_4  + 0.471800 s_2_7  > -997.441460
t_1_4 - t_1_7 - 1000.000000 s_1_7  > -988.049778
t_1_4 - t_2_7 - 1000.000000 s_2_7  > -993.569556
t_2_4 - t_1_7 - 1000.000000 s_1_7  > -988.049778
t_2_4 - t_2_7 - 1000.000000 s_2_7  > -993.569556
s_1_4 + s_1_8 + 1000 r_1_4_8 >= 2
- s_1_4 - s_1_8 - 1000 r_1_4_8 >= -1001
t_1_4 - t_1_8 - 1000.000000 u_1_4_8 - 0.000000 s_1_8  + 2000.000000 r_1_4_8 > -988.388900
s_2_4 + s_2_8 + 1000 r_2_4_8 >= 2
- s_2_4 - s_2_8 - 1000 r_2_4_8 >= -1001
t_2_4 - t_2_8 - 1000.000000 u_2_4_8 - 0.000000 s_2_8  + 2000.000000 r_2_4_8 > -994.189556
s_1_5 + s_1_1 + 1000 r_1_1_5 >= 2
- s_1_5 - s_1_1 - 1000 r_1_1_5 >= -1001
t_1_5 - t_1_1 + 1000.000000 u_1_1_5 - 1.110473 s_1_1  + 0.555236 s_1_8  + 0.555236 s_1_7  + 2000.000000 r_1_1_5 > 7.836867
s_2_5 + s_2_1 + 1000 r_2_1_5 >= 2
- s_2_5 - s_2_1 - 1000 r_2_1_5 >= -1001
t_2_5 - t_2_1 + 1000.000000 u_2_1_5 - 0.943601 s_2_1  + 0.471800 s_2_8  + 0.471800 s_2_7  + 2000.000000 r_2_1_5 > 7.204431
s_1_5 + s_1_2 + 1000 r_1_2_5 >= 2
- s_1_5 - s_1_2 - 1000 r_1_2_5 >= -1001
t_1_5 - t_1_2 + 1000.000000 u_1_2_5 - 0.555236 s_1_2  + 0.555236 s_1_7  + 2000.000000 r_1_2_5 > 7.777925
s_2_5 + s_2_2 + 1000 r_2_2_5 >= 2
- s_2_5 - s_2_2 - 1000 r_2_2_5 >= -1001
t_2_5 - t_2_2 + 1000.000000 u_2_2_5 - 0.471800 s_2_2  + 0.471800 s_2_7  + 2000.000000 r_2_2_5 > 7.342772
s_1_5 + s_1_3 + 1000 r_1_3_5 >= 2
- s_1_5 - s_1_3 - 1000 r_1_3_5 >= -1001
t_1_5 - t_1_3 + 1000.000000 u_1_3_5 - 1.110473 s_1_3  + 0.555236 s_1_8  + 0.555236 s_1_7  + 2000.000000 r_1_3_5 > 0.472422
s_2_5 + s_2_3 + 1000 r_2_3_5 >= 2
- s_2_5 - s_2_3 - 1000 r_2_3_5 >= -1001
t_2_5 - t_2_3 + 1000.000000 u_2_3_5 - 0.943601 s_2_3  + 0.471800 s_2_8  + 0.471800 s_2_7  + 2000.000000 r_2_3_5 > 1.600349
s_1_5 + s_1_4 + 1000 r_1_4_5 >= 2
- s_1_5 - s_1_4 - 1000 r_1_4_5 >= -1001
t_1_5 - t_1_4 + 1000.000000 u_1_4_5 - 0.555236 s_1_4  + 0.555236 s_1_7  + 2000.000000 r_1_4_5 > 0.787689
s_2_5 + s_2_4 + 1000 r_2_4_5 >= 2
- s_2_5 - s_2_4 - 1000 r_2_4_5 >= -1001
t_2_5 - t_2_4 + 1000.000000 u_2_4_5 - 0.471800 s_2_4  + 0.471800 s_2_7  + 2000.000000 r_2_4_5 > 2.558540
t_1_6 - t_1_5 - 1000.555236 s_1_5  + 0.555236 s_1_8  > -996.348833
t_1_6 - t_2_5 - 1000.471800 s_2_5  + 0.471800 s_2_8  > -996.115189
t_2_6 - t_1_5 - 1000.555236 s_1_5  + 0.555236 s_1_8  > -996.348833
t_2_6 - t_2_5 - 1000.471800 s_2_5  + 0.471800 s_2_8  > -996.115189
s_1_5 + s_1_7 + 1000 r_1_5_7 >= 2
- s_1_5 - s_1_7 - 1000 r_1_5_7 >= -1001
t_1_5 - t_1_7 - 1000.000000 u_1_5_7 - 0.000000 s_1_7  + 2000.000000 r_1_5_7 > -988.049778
s_2_5 + s_2_7 + 1000 r_2_5_7 >= 2
- s_2_5 - s_2_7 - 1000 r_2_5_7 >= -1001
t_2_5 - t_2_7 - 1000.000000 u_2_5_7 - 0.000000 s_2_7  + 2000.000000 r_2_5_7 > -993.569556
t_1_5 - t_1_8 - 1000.000000 s_1_8  > -988.388900
t_1_5 - t_2_8 - 1000.000000 s_2_8  > -994.189556
t_2_5 - t_1_8 - 1000.000000 s_1_8  > -988.388900
t_2_5 - t_2_8 - 1000.000000 s_2_8  > -994.189556
t_1_6 - t_1_7 - 1000.000000 s_1_7  > -988.049778
t_1_6 - t_2_7 - 1000.000000 s_2_7  > -993.569556
t_2_6 - t_1_7 - 1000.000000 s_1_7  > -988.049778
t_2_6 - t_2_7 - 1000.000000 s_2_7  > -993.569556
s_1_7 + s_1_5 + 1000 r_1_5_7 >= 2
- s_1_7 - s_1_5 - 1000 r_1_5_7 >= -1001
t_1_7 - t_1_5 + 1000.000000 u_1_5_7 - 0.555236 s_1_5  + 0.555236 s_1_8  + 2000.000000 r_1_5_7 > 3.651167
s_2_7 + s_2_5 + 1000 r_2_5_7 >= 2
- s_2_7 - s_2_5 - 1000 r_2_5_7 >= -1001
t_2_7 - t_2_5 + 1000.000000 u_2_5_7 - 0.471800 s_2_5  + 0.471800 s_2_8  + 2000.000000 r_2_5_7 > 3.884811
s_1_7 + s_1_8 + 1000 r_1_7_8 >= 2
- s_1_7 - s_1_8 - 1000 r_1_7_8 >= -1001
t_1_7 - t_1_8 - 1000.000000 u_1_7_8 - 0.000000 s_1_8  + 2000.000000 r_1_7_8 > -988.388900
s_2_7 + s_2_8 + 1000 r_2_7_8 >= 2
- s_2_7 - s_2_8 - 1000 r_2_7_8 >= -1001
t_2_7 - t_2_8 - 1000.000000 u_2_7_8 - 0.000000 s_2_8  + 2000.000000 r_2_7_8 > -994.189556
s_1_8 + s_1_2 + 1000 r_1_2_8 >= 2
- s_1_8 - s_1_2 - 1000 r_1_2_8 >= -1001
t_1_8 - t_1_2 + 1000.000000 u_1_2_8 - 0.555236 s_1_2  + 0.555236 s_1_7  + 2000.000000 r_1_2_8 > 7.777925
s_2_8 + s_2_2 + 1000 r_2_2_8 >= 2
- s_2_8 - s_2_2 - 1000 r_2_2_8 >= -1001
t_2_8 - t_2_2 + 1000.000000 u_2_2_8 - 0.471800 s_2_2  + 0.471800 s_2_7  + 2000.000000 r_2_2_8 > 7.342772
s_1_8 + s_1_4 + 1000 r_1_4_8 >= 2
- s_1_8 - s_1_4 - 1000 r_1_4_8 >= -1001
t_1_8 - t_1_4 + 1000.000000 u_1_4_8 - 0.555236 s_1_4  + 0.555236 s_1_7  + 2000.000000 r_1_4_8 > 0.787689
s_2_8 + s_2_4 + 1000 r_2_4_8 >= 2
- s_2_8 - s_2_4 - 1000 r_2_4_8 >= -1001
t_2_8 - t_2_4 + 1000.000000 u_2_4_8 - 0.471800 s_2_4  + 0.471800 s_2_7  + 2000.000000 r_2_4_8 > 2.558540
s_1_8 + s_1_7 + 1000 r_1_7_8 >= 2
- s_1_8 - s_1_7 - 1000 r_1_7_8 >= -1001
t_1_8 - t_1_7 + 1000.000000 u_1_7_8 - 0.000000 s_1_7  + 2000.000000 r_1_7_8 > 11.950222
s_2_8 + s_2_7 + 1000 r_2_7_8 >= 2
- s_2_8 - s_2_7 - 1000 r_2_7_8 >= -1001
t_2_8 - t_2_7 + 1000.000000 u_2_7_8 - 0.000000 s_2_7  + 2000.000000 r_2_7_8 > 6.430444
Binary
s_1_1
s_2_1
s_1_2
s_2_2
s_1_3
s_2_3
s_1_4
s_2_4
s_1_5
s_2_5
s_1_6
s_2_6
s_1_7
s_2_7
s_1_8
s_2_8
u_1_1_2
r_1_1_2
u_2_1_2
r_2_1_2
u_1_1_3
r_1_1_3
u_2_1_3
r_2_1_3
u_1_1_4
r_1_1_4
u_2_1_4
r_2_1_4
u_1_1_5
r_1_1_5
u_2_1_5
r_2_1_5
u_1_2_3
r_1_2_3
u_2_2_3
r_2_2_3
u_1_2_4
r_1_2_4
u_2_2_4
r_2_2_4
u_1_2_5
r_1_2_5
u_2_2_5
r_2_2_5
u_1_2_8
r_1_2_8
u_2_2_8
r_2_2_8
u_1_3_4
r_1_3_4
u_2_3_4
r_2_3_4
u_1_3_5
r_1_3_5
u_2_3_5
r_2_3_5
u_1_4_5
r_1_4_5
u_2_4_5
r_2_4_5
u_1_4_8
r_1_4_8
u_2_4_8
r_2_4_8
u_1_5_7
r_1_5_7
u_2_5_7
r_2_5_7
u_1_7_8
r_1_7_8
u_2_7_8
r_2_7_8

End
